120
150
78
51
81
21
43
78
34
80
91
21
82
87
83
63
91
88
98
82
98
52
98
100
59
52
59
79
38
90
50
74
52
87
83
61
82
39
63
28
98
67
79
21
85
39
52
33
91
100
34
59
87
90
85
59
63
43
91
98
98
71
68
59
76
88
100
91
83
43
67
91
68
52
52
70
34
22
71
68
100
61
50
85
83
36
40
99
51
32
99
88
90
25
90
98
76
100
98
51
49
23
92
100
83
96
25
50
58
54
52
52
59
59
74
91
59
67
62
67
63
87
